NAME: ./prFile/tspFile/tsp_file65.tsp
COMMENT: TSP file generated by Python
TYPE: TSP
DIMENSION: 40
EDGE_WEIGHT_TYPE: EUC_2D
NODE_COORD_SECTION
1 95 26
2 58 3
3 8 59
4 13 92
5 94 53
6 48 76
7 74 61
8 69 52
9 17 12
10 92 95
11 69 41
12 42 56
13 60 48
14 88 85
15 38 53
16 4 88
17 77 41
18 33 70
19 82 73
20 50 83
21 36 83
22 33 2
23 11 20
24 23 59
25 72 30
26 54 85
27 8 20
28 17 65
29 18 88
30 78 79
31 19 73
32 4 29
33 100 20
34 86 39
35 10 95
36 96 83
37 68 31
38 44 68
39 83 50
40 25 67
EOF
